32      4       
10      10      10      10      
0       0       0       0       0       4       2       3       4       5       
8       4       6       10      2       1       7       
9       6       1       1       4       1       29      
8       3       4       4       2       1       6       
2       3       8       1       4       1       8       
6       1       8       8       9       1       12      
3       7       6       3       5       1       9       
9       2       10      5       1       1       10      
8       10      9       4       6       1       11      
8       9       3       3       10      1       13      
6       10      9       2       5       1       15      
1       7       10      5       2       1       16      
6       3       2       2       9       1       14      
5       2       7       6       7       1       17      
3       5       9       10      4       1       18      
10      9       2       9       5       1       24      
3       9       5       1       8       1       22      
8       4       10      9       1       1       19      
9       6       10      10      5       1       20      
5       5       2       8       2       1       21      
7       10      7       5       5       1       31      
6       2       10      8       3       1       23      
3       4       10      10      6       1       25      
4       5       9       1       10      1       26      
5       2       6       8       4       1       30      
1       5       9       7       10      1       27      
3       1       3       3       7       1       28      
6       4       3       5       2       1       32      
5       9       4       7       4       1       32      
10      6       10      9       6       1       32      
7       8       1       10      2       1       32      
0       0       0       0       0       0       
